;(set-option :produce-unsat-cores true )
(set-logic ALL_SUPPORTED )
(declare-sort N$ 0 )
(declare-sort T$ 0 )
(declare-sort Dtree$ 0 )
(declare-sort N_set$ 0 )
(declare-sort N_bool_fun$ 0 )
(declare-sort T_dtree_sum_set$ 0 )
(declare-datatypes ()((T_dtree_sum$ (inl$ (projl$ T$ ))(inr$ (projr$ Dtree$ )))))
(declare-fun n$ ()N$ )
(declare-fun ns$ ()N_set$ )
(declare-fun tr$ ()Dtree$ )
(declare-fun itr$ (N_set$ Dtree$ )N_set$ )
(declare-fun ns$a ()N_set$ )
(declare-fun cont$ (Dtree$ )T_dtree_sum_set$ )
(declare-fun inFr$ (N_set$ Dtree$ T$ )Bool )
(declare-fun root$ (Dtree$ )N$ )
(declare-fun inFr2$ (N_set$ Dtree$ T$ )Bool )
(declare-fun inItr$ (N_set$ Dtree$ )N_bool_fun$ )
(declare-fun member$ (N$ N_set$ )Bool )
(declare-fun collect$ (N_bool_fun$ )N_set$ )
(declare-fun fun_app$ (N_bool_fun$ N$ )Bool )
(declare-fun less_eq$ (N_set$ N_set$ )Bool )
(declare-fun member$a (T_dtree_sum$ T_dtree_sum_set$ )Bool )
(declare-fun less_eq$a (T_dtree_sum_set$ T_dtree_sum_set$ )Bool )
(assert (! (not (fun_app$ (inItr$ ns$ tr$ )n$ )):named a0 ))
(assert (! (less_eq$ ns$a ns$ ):named a1 ))
(assert (! (fun_app$ (inItr$ ns$a tr$ )n$ ):named a2 ))
(assert (! (forall ((?v0 N_set$ )(?v1 Dtree$ )(?v2 N$ ))(=> (fun_app$ (inItr$ ?v0 ?v1 )?v2 )(member$ (root$ ?v1 )?v0 ))):named a3 ))
(assert (! (forall ((?v0 Dtree$ )(?v1 N_set$ ))(=> (member$ (root$ ?v0 )?v1 )(fun_app$ (inItr$ ?v1 ?v0 )(root$ ?v0 )))):named a4 ))
(assert (! (forall ((?v0 N_set$ )(?v1 Dtree$ ))(! (= (itr$ ?v0 ?v1 )(collect$ (inItr$ ?v0 ?v1 ))):pattern ((itr$ ?v0 ?v1 )))):named a5 ))
(assert (! (forall ((?v0 N_set$ )(?v1 Dtree$ )(?v2 N$ ))(= (fun_app$ (inItr$ ?v0 ?v1 )?v2 )(or (exists ((?v3 Dtree$ )(?v4 N_set$ ))(and (= ?v0 ?v4 )(and (= ?v1 ?v3 )(and (= ?v2 (root$ ?v3 ))(member$ (root$ ?v3 )?v4 )))))(exists ((?v3 Dtree$ )(?v4 N_set$ )(?v5 Dtree$ )(?v6 N$ ))(and (= ?v0 ?v4 )(and (= ?v1 ?v3 )(and (= ?v2 ?v6 )(and (member$ (root$ ?v3 )?v4 )(and (member$a (inr$ ?v5 )(cont$ ?v3 ))(fun_app$ (inItr$ ?v4 ?v5 )?v6 )))))))))):named a6 ))
(assert (! (forall ((?v0 N_set$ )(?v1 Dtree$ )(?v2 N$ ))(=> (and (fun_app$ (inItr$ ?v0 ?v1 )?v2 )(and (forall ((?v3 Dtree$ )(?v4 N_set$ ))(=> (and (= ?v0 ?v4 )(and (= ?v1 ?v3 )(and (= ?v2 (root$ ?v3 ))(member$ (root$ ?v3 )?v4 ))))false ))(forall ((?v3 Dtree$ )(?v4 N_set$ )(?v5 Dtree$ )(?v6 N$ ))(=> (and (= ?v0 ?v4 )(and (= ?v1 ?v3 )(and (= ?v2 ?v6 )(and (member$ (root$ ?v3 )?v4 )(and (member$a (inr$ ?v5 )(cont$ ?v3 ))(fun_app$ (inItr$ ?v4 ?v5 )?v6 ))))))false ))))false )):named a7 ))
(assert (! (forall ((?v0 Dtree$ )(?v1 N_set$ )(?v2 Dtree$ )(?v3 N$ ))(=> (and (member$ (root$ ?v0 )?v1 )(and (member$a (inr$ ?v2 )(cont$ ?v0 ))(fun_app$ (inItr$ ?v1 ?v2 )?v3 )))(fun_app$ (inItr$ ?v1 ?v0 )?v3 ))):named a8 ))
(assert (! (forall ((?v0 Dtree$ )(?v1 Dtree$ ))(= (= (inr$ ?v0 )(inr$ ?v1 ))(= ?v0 ?v1 ))):named a9 ))
(assert (! (forall ((?v0 Dtree$ )(?v1 Dtree$ ))(= (= (inr$ ?v0 )(inr$ ?v1 ))(= ?v0 ?v1 ))):named a10 ))
(assert (! (forall ((?v0 T_dtree_sum_set$ )(?v1 T_dtree_sum_set$ ))(=> (forall ((?v2 T_dtree_sum$ ))(=> (member$a ?v2 ?v0 )(member$a ?v2 ?v1 )))(less_eq$a ?v0 ?v1 ))):named a11 ))
(assert (! (forall ((?v0 N_set$ )(?v1 N_set$ ))(=> (forall ((?v2 N$ ))(=> (member$ ?v2 ?v0 )(member$ ?v2 ?v1 )))(less_eq$ ?v0 ?v1 ))):named a12 ))
(assert (! (forall ((?v0 T_dtree_sum_set$ )(?v1 T_dtree_sum_set$ ))(=> (and (less_eq$a ?v0 ?v1 )(less_eq$a ?v1 ?v0 ))(= ?v0 ?v1 ))):named a13 ))
(assert (! (forall ((?v0 N_set$ )(?v1 N_set$ ))(=> (and (less_eq$ ?v0 ?v1 )(less_eq$ ?v1 ?v0 ))(= ?v0 ?v1 ))):named a14 ))
(assert (! (forall ((?v0 T_dtree_sum_set$ ))(less_eq$a ?v0 ?v0 )):named a15 ))
(assert (! (forall ((?v0 N_set$ ))(less_eq$ ?v0 ?v0 )):named a16 ))
(assert (! (forall ((?v0 Dtree$ )(?v1 Dtree$ ))(=> (and (= (root$ ?v0 )(root$ ?v1 ))(= (cont$ ?v0 )(cont$ ?v1 )))(= ?v0 ?v1 ))):named a17 ))
(assert (! (forall ((?v0 N_set$ )(?v1 Dtree$ )(?v2 T$ )(?v3 Dtree$ ))(=> (and (inFr2$ ?v0 ?v1 ?v2 )(and (member$ (root$ ?v3 )?v0 )(member$a (inr$ ?v1 )(cont$ ?v3 ))))(inFr2$ ?v0 ?v3 ?v2 ))):named a18 ))
(assert (! (forall ((?v0 Dtree$ )(?v1 N_set$ )(?v2 Dtree$ )(?v3 T$ ))(=> (and (member$ (root$ ?v0 )?v1 )(and (member$a (inr$ ?v2 )(cont$ ?v0 ))(inFr$ ?v1 ?v2 ?v3 )))(inFr$ ?v1 ?v0 ?v3 ))):named a19 ))
(check-sat )
;(get-unsat-core )
